c colouring generated by benchmark framework
p edge 128 5198
v 1 54
v 2 50
v 3 4
v 4 5
v 5 10
v 6 24
v 7 30
v 8 4
v 9 19
v 10 49
v 11 72
v 12 33
v 13 47
v 14 43
v 15 21
v 16 65
v 17 6
v 18 50
v 19 17
v 20 57
v 21 23
v 22 35
v 23 65
v 24 63
v 25 72
v 26 54
v 27 31
v 28 11
v 29 49
v 30 68
v 31 28
v 32 52
v 33 32
v 34 16
v 35 25
v 36 54
v 37 11
v 38 71
v 39 1
v 40 53
v 41 69
v 42 31
v 43 64
v 44 43
v 45 33
v 46 70
v 47 13
v 48 45
v 49 56
v 50 60
v 51 18
v 52 34
v 53 59
v 54 0
v 55 66
v 56 3
v 57 16
v 58 26
v 59 1
v 60 7
v 61 20
v 62 6
v 63 2
v 64 15
v 65 42
v 66 21
v 67 35
v 68 44
v 69 39
v 70 18
v 71 32
v 72 39
v 73 8
v 74 3
v 75 36
v 76 5
v 77 68
v 78 61
v 79 51
v 80 20
v 81 17
v 82 16
v 83 53
v 84 55
v 85 57
v 86 38
v 87 15
v 88 9
v 89 45
v 90 60
v 91 10
v 92 14
v 93 48
v 94 28
v 95 1
v 96 42
v 97 24
v 98 59
v 99 13
v 100 22
v 101 12
v 102 38
v 103 26
v 104 3
v 105 62
v 106 2
v 107 23
v 108 19
v 109 40
v 110 0
v 111 56
v 112 47
v 113 52
v 114 2
v 115 27
v 116 67
v 117 58
v 118 40
v 119 30
v 120 27
v 121 55
v 122 29
v 123 46
v 124 9
v 125 7
v 126 25
v 127 41
v 128 37
